3292.0 95716.0 
3241.0 97888.0 
3263.0 96793.0 
3386.0 93618.0 
3278.0 96253.0 
3366.0 93965.0 
3295.0 95349.0 
3352.0 94754.0 
3301.0 94995.0 
3266.0 96732.0 
3250.0 97291.0 
3358.0 94302.0 
3363.0 93983.0 
3319.0 94907.0 
3268.0 96342.0 
3367.0 93656.0 
